instances/knapsack/knapsack_interdiction/knapsack_80_1_4.kp
42
80
8179

769 77.0 869 126.56
26 3.0 126 20.73
410 41.0 510 75.06
598 60.0 698 102.8
556 56.0 656 75.9
956 96.0 1056 119.64
113 11.0 213 34.64
100 10.0 200 21.77
670 67.0 770 129.05
685 68.0 785 120.82
679 68.0 779 105.84
737 74.0 837 147.76
207 21.0 307 42.56
221 22.0 321 45.48
929 93.0 1029 185.21
443 44.0 543 80.31
159 16.0 259 39.26
778 78.0 878 87.96
608 61.0 708 115.34
58 6.0 158 20.57
397 40.0 497 58.41
931 93.0 1031 168.33
9 1.0 109 15.26
275 28.0 375 46.67
198 20.0 298 42.37
631 63.0 731 91.37
658 66.0 758 106.68
802 80.0 902 157.04
646 65.0 746 76.23
179 18.0 279 52.33
490 49.0 590 97.66
540 54.0 640 104.93
247 25.0 347 40.01
466 47.0 566 92.69
462 46.0 562 56.59
762 76.0 862 135.03
419 42.0 519 70.98
710 71.0 810 155.63
804 80.0 904 98.61
585 58.0 685 102.49
935 94.0 1035 162.73
541 54.0 641 125.84
917 92.0 1017 147.52
567 57.0 667 93.89
998 100.0 1098 167.03
920 92.0 1020 182.52
708 71.0 808 138.41
1000 100.0 1100 149.3
414 41.0 514 87.84
461 46.0 561 83.59
510 51.0 610 104.93
174 17.0 274 40.74
572 57.0 672 77.9
652 65.0 752 89.16
205 20.0 305 59.46
911 91.0 1011 104.17
23 2.0 123 19.55
406 41.0 506 89.69
237 24.0 337 47.0
752 75.0 852 153.7
891 89.0 991 150.23
369 37.0 469 91.43
49 5.0 149 27.68
384 38.0 484 53.23
397 40.0 497 86.01
776 78.0 876 115.98
803 80.0 903 153.58
775 78.0 875 161.1
118 12.0 218 36.68
343 34.0 443 81.27
119 12.0 219 31.1
333 33.0 433 59.62
446 45.0 546 102.86
173 17.0 273 46.73
554 55.0 654 103.47
495 50.0 595 117.28
806 81.0 906 144.68
778 78.0 878 162.54
396 40.0 496 61.85
75 8.0 175 23.57

42
[983]

[[1, 1, 1, 1, 9, 4, 7, 0, 5, 6, 9, 10, 4, 11, 0, 1, 5, 6, 6, 9, 8, 4, 9, 11, 8, 9, 7, 1, 10, 11, 7, 9, 6, 2, 11, 4, 1, 0, 9, 2, 3, 2, 3, 9, 0, 1, 5, 6, 1, 6, 8, 3, 2, 7, 7, 6, 5, 5, 1, 1, 7, 5, 0, 7, 11, 2, 2, 5, 11, 6, 8, 2, 11, 10, 4, 8, 1, 3, 6, 7]]

[[706, 487, 371, 387, 733, 673, 442, 345, 351, 562, 936, 606, 312, 378, 602, 928, 544, 623, 881, 407, 454, 64, 930, 264, 983, 852, 67, 175, 855, 24, 955, 785, 968, 791, 431, 527, 564, 667, 277, 262, 864, 762, 902, 28, 823, 949, 565, 621, 767, 2, 855, 219, 325, 897, 782, 660, 664, 963, 526, 69, 76, 446, 618, 221, 494, 557, 220, 932, 775, 364, 864, 186, 727, 82, 739, 156, 503, 671, 37, 272]]
