instances/knapsack/knapsack_interdiction/knapsack_80_1_4.lp
\ Model knapsack_80_1_4
\ LP format - for model browsing. Use MPS format to capture full model detail.
\ Signature: 0x16350109bf62a368
Minimize
  126.56 x[0] + 20.73 x[1] + 75.06 x[2] + 102.8 x[3] + 75.9 x[4]
   + 119.64 x[5] + 34.64 x[6] + 21.77 x[7] + 129.05 x[8] + 120.82 x[9]
   + 105.84 x[10] + 147.76 x[11] + 42.56 x[12] + 45.48 x[13] + 185.21 x[14]
   + 80.31 x[15] + 39.26 x[16] + 87.96 x[17] + 115.34 x[18] + 20.57 x[19]
   + 58.41 x[20] + 168.33 x[21] + 15.26 x[22] + 46.67 x[23] + 42.37 x[24]
   + 91.37 x[25] + 106.68 x[26] + 157.04 x[27] + 76.23 x[28] + 52.33 x[29]
   + 97.66 x[30] + 104.93 x[31] + 40.01 x[32] + 92.69 x[33] + 56.59 x[34]
   + 135.03 x[35] + 70.98 x[36] + 155.63 x[37] + 98.61 x[38] + 102.49 x[39]
   + 162.73 x[40] + 125.84 x[41] + 147.52 x[42] + 93.89 x[43]
   + 167.03 x[44] + 182.52 x[45] + 138.41 x[46] + 149.3 x[47] + 87.84 x[48]
   + 83.59 x[49] + 104.93 x[50] + 40.74 x[51] + 77.9 x[52] + 89.16 x[53]
   + 59.46 x[54] + 104.17 x[55] + 19.55 x[56] + 89.69 x[57] + 47 x[58]
   + 153.7 x[59] + 150.23 x[60] + 91.43 x[61] + 27.68 x[62] + 53.23 x[63]
   + 86.01 x[64] + 115.98 x[65] + 153.58 x[66] + 161.1 x[67] + 36.68 x[68]
   + 81.27 x[69] + 31.1 x[70] + 59.62 x[71] + 102.86 x[72] + 46.73 x[73]
   + 103.47 x[74] + 117.28 x[75] + 144.68 x[76] + 162.54 x[77]
   + 61.85 x[78] + 23.57 x[79] - 869 y[0] - 126 y[1] - 510 y[2] - 698 y[3]
   - 656 y[4] - 1056 y[5] - 213 y[6] - 200 y[7] - 770 y[8] - 785 y[9]
   - 779 y[10] - 837 y[11] - 307 y[12] - 321 y[13] - 1029 y[14] - 543 y[15]
   - 259 y[16] - 878 y[17] - 708 y[18] - 158 y[19] - 497 y[20] - 1031 y[21]
   - 109 y[22] - 375 y[23] - 298 y[24] - 731 y[25] - 758 y[26] - 902 y[27]
   - 746 y[28] - 279 y[29] - 590 y[30] - 640 y[31] - 347 y[32] - 566 y[33]
   - 562 y[34] - 862 y[35] - 519 y[36] - 810 y[37] - 904 y[38] - 685 y[39]
   - 1035 y[40] - 641 y[41] - 1017 y[42] - 667 y[43] - 1098 y[44]
   - 1020 y[45] - 808 y[46] - 1100 y[47] - 514 y[48] - 561 y[49]
   - 610 y[50] - 274 y[51] - 672 y[52] - 752 y[53] - 305 y[54] - 1011 y[55]
   - 123 y[56] - 506 y[57] - 337 y[58] - 852 y[59] - 991 y[60] - 469 y[61]
   - 149 y[62] - 484 y[63] - 497 y[64] - 876 y[65] - 903 y[66] - 875 y[67]
   - 218 y[68] - 443 y[69] - 219 y[70] - 433 y[71] - 546 y[72] - 273 y[73]
   - 654 y[74] - 595 y[75] - 906 y[76] - 878 y[77] - 496 y[78] - 175 y[79]
Subject To
 primal_upper: 769 y[0] + 26 y[1] + 410 y[2] + 598 y[3] + 556 y[4]
   + 956 y[5] + 113 y[6] + 100 y[7] + 670 y[8] + 685 y[9] + 679 y[10]
   + 737 y[11] + 207 y[12] + 221 y[13] + 929 y[14] + 443 y[15] + 159 y[16]
   + 778 y[17] + 608 y[18] + 58 y[19] + 397 y[20] + 931 y[21] + 9 y[22]
   + 275 y[23] + 198 y[24] + 631 y[25] + 658 y[26] + 802 y[27] + 646 y[28]
   + 179 y[29] + 490 y[30] + 540 y[31] + 247 y[32] + 466 y[33] + 462 y[34]
   + 762 y[35] + 419 y[36] + 710 y[37] + 804 y[38] + 585 y[39] + 935 y[40]
   + 541 y[41] + 917 y[42] + 567 y[43] + 998 y[44] + 920 y[45] + 708 y[46]
   + 1000 y[47] + 414 y[48] + 461 y[49] + 510 y[50] + 174 y[51] + 572 y[52]
   + 652 y[53] + 205 y[54] + 911 y[55] + 23 y[56] + 406 y[57] + 237 y[58]
   + 752 y[59] + 891 y[60] + 369 y[61] + 49 y[62] + 384 y[63] + 397 y[64]
   + 776 y[65] + 803 y[66] + 775 y[67] + 118 y[68] + 343 y[69] + 119 y[70]
   + 333 y[71] + 446 y[72] + 173 y[73] + 554 y[74] + 495 y[75] + 806 y[76]
   + 778 y[77] + 396 y[78] + 75 y[79] + 77 z[0] + 3 z[1] + 41 z[2]
   + 60 z[3] + 56 z[4] + 96 z[5] + 11 z[6] + 10 z[7] + 67 z[8] + 68 z[9]
   + 68 z[10] + 74 z[11] + 21 z[12] + 22 z[13] + 93 z[14] + 44 z[15]
   + 16 z[16] + 78 z[17] + 61 z[18] + 6 z[19] + 40 z[20] + 93 z[21] + z[22]
   + 28 z[23] + 20 z[24] + 63 z[25] + 66 z[26] + 80 z[27] + 65 z[28]
   + 18 z[29] + 49 z[30] + 54 z[31] + 25 z[32] + 47 z[33] + 46 z[34]
   + 76 z[35] + 42 z[36] + 71 z[37] + 80 z[38] + 58 z[39] + 94 z[40]
   + 54 z[41] + 92 z[42] + 57 z[43] + 100 z[44] + 92 z[45] + 71 z[46]
   + 100 z[47] + 41 z[48] + 46 z[49] + 51 z[50] + 17 z[51] + 57 z[52]
   + 65 z[53] + 20 z[54] + 91 z[55] + 2 z[56] + 41 z[57] + 24 z[58]
   + 75 z[59] + 89 z[60] + 37 z[61] + 5 z[62] + 38 z[63] + 40 z[64]
   + 78 z[65] + 80 z[66] + 78 z[67] + 12 z[68] + 34 z[69] + 12 z[70]
   + 33 z[71] + 45 z[72] + 17 z[73] + 55 z[74] + 50 z[75] + 81 z[76]
   + 78 z[77] + 40 z[78] + 8 z[79] <= 8179
 primal_lower0: 706 u[0] + 487 u[1] + 371 u[2] + 387 u[3] + 733 u[4]
   + 673 u[5] + 442 u[6] + 345 u[7] + 351 u[8] + 562 u[9] + 936 u[10]
   + 606 u[11] + 312 u[12] + 378 u[13] + 602 u[14] + 928 u[15] + 544 u[16]
   + 623 u[17] + 881 u[18] + 407 u[19] + 454 u[20] + 64 u[21] + 930 u[22]
   + 264 u[23] + 983 u[24] + 852 u[25] + 67 u[26] + 175 u[27] + 855 u[28]
   + 24 u[29] + 955 u[30] + 785 u[31] + 968 u[32] + 791 u[33] + 431 u[34]
   + 527 u[35] + 564 u[36] + 667 u[37] + 277 u[38] + 262 u[39] + 864 u[40]
   + 762 u[41] + 902 u[42] + 28 u[43] + 823 u[44] + 949 u[45] + 565 u[46]
   + 621 u[47] + 767 u[48] + 2 u[49] + 855 u[50] + 219 u[51] + 325 u[52]
   + 897 u[53] + 782 u[54] + 660 u[55] + 664 u[56] + 963 u[57] + 526 u[58]
   + 69 u[59] + 76 u[60] + 446 u[61] + 618 u[62] + 221 u[63] + 494 u[64]
   + 557 u[65] + 220 u[66] + 932 u[67] + 775 u[68] + 364 u[69] + 864 u[70]
   + 186 u[71] + 727 u[72] + 82 u[73] + 739 u[74] + 156 u[75] + 503 u[76]
   + 671 u[77] + 37 u[78] + 272 u[79] <= 983
 interdiction[0]: x[0] + u[0] <= 1
 interdiction[1]: x[1] + u[1] <= 1
 interdiction[2]: x[2] + u[2] <= 1
 interdiction[3]: x[3] + u[3] <= 1
 interdiction[4]: x[4] + u[4] <= 1
 interdiction[5]: x[5] + u[5] <= 1
 interdiction[6]: x[6] + u[6] <= 1
 interdiction[7]: x[7] + u[7] <= 1
 interdiction[8]: x[8] + u[8] <= 1
 interdiction[9]: x[9] + u[9] <= 1
 interdiction[10]: x[10] + u[10] <= 1
 interdiction[11]: x[11] + u[11] <= 1
 interdiction[12]: x[12] + u[12] <= 1
 interdiction[13]: x[13] + u[13] <= 1
 interdiction[14]: x[14] + u[14] <= 1
 interdiction[15]: x[15] + u[15] <= 1
 interdiction[16]: x[16] + u[16] <= 1
 interdiction[17]: x[17] + u[17] <= 1
 interdiction[18]: x[18] + u[18] <= 1
 interdiction[19]: x[19] + u[19] <= 1
 interdiction[20]: x[20] + u[20] <= 1
 interdiction[21]: x[21] + u[21] <= 1
 interdiction[22]: x[22] + u[22] <= 1
 interdiction[23]: x[23] + u[23] <= 1
 interdiction[24]: x[24] + u[24] <= 1
 interdiction[25]: x[25] + u[25] <= 1
 interdiction[26]: x[26] + u[26] <= 1
 interdiction[27]: x[27] + u[27] <= 1
 interdiction[28]: x[28] + u[28] <= 1
 interdiction[29]: x[29] + u[29] <= 1
 interdiction[30]: x[30] + u[30] <= 1
 interdiction[31]: x[31] + u[31] <= 1
 interdiction[32]: x[32] + u[32] <= 1
 interdiction[33]: x[33] + u[33] <= 1
 interdiction[34]: x[34] + u[34] <= 1
 interdiction[35]: x[35] + u[35] <= 1
 interdiction[36]: x[36] + u[36] <= 1
 interdiction[37]: x[37] + u[37] <= 1
 interdiction[38]: x[38] + u[38] <= 1
 interdiction[39]: x[39] + u[39] <= 1
 interdiction[40]: x[40] + u[40] <= 1
 interdiction[41]: x[41] + u[41] <= 1
 interdiction[42]: x[42] + u[42] <= 1
 interdiction[43]: x[43] + u[43] <= 1
 interdiction[44]: x[44] + u[44] <= 1
 interdiction[45]: x[45] + u[45] <= 1
 interdiction[46]: x[46] + u[46] <= 1
 interdiction[47]: x[47] + u[47] <= 1
 interdiction[48]: x[48] + u[48] <= 1
 interdiction[49]: x[49] + u[49] <= 1
 interdiction[50]: x[50] + u[50] <= 1
 interdiction[51]: x[51] + u[51] <= 1
 interdiction[52]: x[52] + u[52] <= 1
 interdiction[53]: x[53] + u[53] <= 1
 interdiction[54]: x[54] + u[54] <= 1
 interdiction[55]: x[55] + u[55] <= 1
 interdiction[56]: x[56] + u[56] <= 1
 interdiction[57]: x[57] + u[57] <= 1
 interdiction[58]: x[58] + u[58] <= 1
 interdiction[59]: x[59] + u[59] <= 1
 interdiction[60]: x[60] + u[60] <= 1
 interdiction[61]: x[61] + u[61] <= 1
 interdiction[62]: x[62] + u[62] <= 1
 interdiction[63]: x[63] + u[63] <= 1
 interdiction[64]: x[64] + u[64] <= 1
 interdiction[65]: x[65] + u[65] <= 1
 interdiction[66]: x[66] + u[66] <= 1
 interdiction[67]: x[67] + u[67] <= 1
 interdiction[68]: x[68] + u[68] <= 1
 interdiction[69]: x[69] + u[69] <= 1
 interdiction[70]: x[70] + u[70] <= 1
 interdiction[71]: x[71] + u[71] <= 1
 interdiction[72]: x[72] + u[72] <= 1
 interdiction[73]: x[73] + u[73] <= 1
 interdiction[74]: x[74] + u[74] <= 1
 interdiction[75]: x[75] + u[75] <= 1
 interdiction[76]: x[76] + u[76] <= 1
 interdiction[77]: x[77] + u[77] <= 1
 interdiction[78]: x[78] + u[78] <= 1
 interdiction[79]: x[79] + u[79] <= 1
 mccormick1[0]: - u[0] + z[0] <= 0
 mccormick1[1]: - u[1] + z[1] <= 0
 mccormick1[2]: - u[2] + z[2] <= 0
 mccormick1[3]: - u[3] + z[3] <= 0
 mccormick1[4]: - u[4] + z[4] <= 0
 mccormick1[5]: - u[5] + z[5] <= 0
 mccormick1[6]: - u[6] + z[6] <= 0
 mccormick1[7]: - u[7] + z[7] <= 0
 mccormick1[8]: - u[8] + z[8] <= 0
 mccormick1[9]: - u[9] + z[9] <= 0
 mccormick1[10]: - u[10] + z[10] <= 0
 mccormick1[11]: - u[11] + z[11] <= 0
 mccormick1[12]: - u[12] + z[12] <= 0
 mccormick1[13]: - u[13] + z[13] <= 0
 mccormick1[14]: - u[14] + z[14] <= 0
 mccormick1[15]: - u[15] + z[15] <= 0
 mccormick1[16]: - u[16] + z[16] <= 0
 mccormick1[17]: - u[17] + z[17] <= 0
 mccormick1[18]: - u[18] + z[18] <= 0
 mccormick1[19]: - u[19] + z[19] <= 0
 mccormick1[20]: - u[20] + z[20] <= 0
 mccormick1[21]: - u[21] + z[21] <= 0
 mccormick1[22]: - u[22] + z[22] <= 0
 mccormick1[23]: - u[23] + z[23] <= 0
 mccormick1[24]: - u[24] + z[24] <= 0
 mccormick1[25]: - u[25] + z[25] <= 0
 mccormick1[26]: - u[26] + z[26] <= 0
 mccormick1[27]: - u[27] + z[27] <= 0
 mccormick1[28]: - u[28] + z[28] <= 0
 mccormick1[29]: - u[29] + z[29] <= 0
 mccormick1[30]: - u[30] + z[30] <= 0
 mccormick1[31]: - u[31] + z[31] <= 0
 mccormick1[32]: - u[32] + z[32] <= 0
 mccormick1[33]: - u[33] + z[33] <= 0
 mccormick1[34]: - u[34] + z[34] <= 0
 mccormick1[35]: - u[35] + z[35] <= 0
 mccormick1[36]: - u[36] + z[36] <= 0
 mccormick1[37]: - u[37] + z[37] <= 0
 mccormick1[38]: - u[38] + z[38] <= 0
 mccormick1[39]: - u[39] + z[39] <= 0
 mccormick1[40]: - u[40] + z[40] <= 0
 mccormick1[41]: - u[41] + z[41] <= 0
 mccormick1[42]: - u[42] + z[42] <= 0
 mccormick1[43]: - u[43] + z[43] <= 0
 mccormick1[44]: - u[44] + z[44] <= 0
 mccormick1[45]: - u[45] + z[45] <= 0
 mccormick1[46]: - u[46] + z[46] <= 0
 mccormick1[47]: - u[47] + z[47] <= 0
 mccormick1[48]: - u[48] + z[48] <= 0
 mccormick1[49]: - u[49] + z[49] <= 0
 mccormick1[50]: - u[50] + z[50] <= 0
 mccormick1[51]: - u[51] + z[51] <= 0
 mccormick1[52]: - u[52] + z[52] <= 0
 mccormick1[53]: - u[53] + z[53] <= 0
 mccormick1[54]: - u[54] + z[54] <= 0
 mccormick1[55]: - u[55] + z[55] <= 0
 mccormick1[56]: - u[56] + z[56] <= 0
 mccormick1[57]: - u[57] + z[57] <= 0
 mccormick1[58]: - u[58] + z[58] <= 0
 mccormick1[59]: - u[59] + z[59] <= 0
 mccormick1[60]: - u[60] + z[60] <= 0
 mccormick1[61]: - u[61] + z[61] <= 0
 mccormick1[62]: - u[62] + z[62] <= 0
 mccormick1[63]: - u[63] + z[63] <= 0
 mccormick1[64]: - u[64] + z[64] <= 0
 mccormick1[65]: - u[65] + z[65] <= 0
 mccormick1[66]: - u[66] + z[66] <= 0
 mccormick1[67]: - u[67] + z[67] <= 0
 mccormick1[68]: - u[68] + z[68] <= 0
 mccormick1[69]: - u[69] + z[69] <= 0
 mccormick1[70]: - u[70] + z[70] <= 0
 mccormick1[71]: - u[71] + z[71] <= 0
 mccormick1[72]: - u[72] + z[72] <= 0
 mccormick1[73]: - u[73] + z[73] <= 0
 mccormick1[74]: - u[74] + z[74] <= 0
 mccormick1[75]: - u[75] + z[75] <= 0
 mccormick1[76]: - u[76] + z[76] <= 0
 mccormick1[77]: - u[77] + z[77] <= 0
 mccormick1[78]: - u[78] + z[78] <= 0
 mccormick1[79]: - u[79] + z[79] <= 0
 mccormick2[0]: - y[0] + z[0] <= 0
 mccormick2[1]: - y[1] + z[1] <= 0
 mccormick2[2]: - y[2] + z[2] <= 0
 mccormick2[3]: - y[3] + z[3] <= 0
 mccormick2[4]: - y[4] + z[4] <= 0
 mccormick2[5]: - y[5] + z[5] <= 0
 mccormick2[6]: - y[6] + z[6] <= 0
 mccormick2[7]: - y[7] + z[7] <= 0
 mccormick2[8]: - y[8] + z[8] <= 0
 mccormick2[9]: - y[9] + z[9] <= 0
 mccormick2[10]: - y[10] + z[10] <= 0
 mccormick2[11]: - y[11] + z[11] <= 0
 mccormick2[12]: - y[12] + z[12] <= 0
 mccormick2[13]: - y[13] + z[13] <= 0
 mccormick2[14]: - y[14] + z[14] <= 0
 mccormick2[15]: - y[15] + z[15] <= 0
 mccormick2[16]: - y[16] + z[16] <= 0
 mccormick2[17]: - y[17] + z[17] <= 0
 mccormick2[18]: - y[18] + z[18] <= 0
 mccormick2[19]: - y[19] + z[19] <= 0
 mccormick2[20]: - y[20] + z[20] <= 0
 mccormick2[21]: - y[21] + z[21] <= 0
 mccormick2[22]: - y[22] + z[22] <= 0
 mccormick2[23]: - y[23] + z[23] <= 0
 mccormick2[24]: - y[24] + z[24] <= 0
 mccormick2[25]: - y[25] + z[25] <= 0
 mccormick2[26]: - y[26] + z[26] <= 0
 mccormick2[27]: - y[27] + z[27] <= 0
 mccormick2[28]: - y[28] + z[28] <= 0
 mccormick2[29]: - y[29] + z[29] <= 0
 mccormick2[30]: - y[30] + z[30] <= 0
 mccormick2[31]: - y[31] + z[31] <= 0
 mccormick2[32]: - y[32] + z[32] <= 0
 mccormick2[33]: - y[33] + z[33] <= 0
 mccormick2[34]: - y[34] + z[34] <= 0
 mccormick2[35]: - y[35] + z[35] <= 0
 mccormick2[36]: - y[36] + z[36] <= 0
 mccormick2[37]: - y[37] + z[37] <= 0
 mccormick2[38]: - y[38] + z[38] <= 0
 mccormick2[39]: - y[39] + z[39] <= 0
 mccormick2[40]: - y[40] + z[40] <= 0
 mccormick2[41]: - y[41] + z[41] <= 0
 mccormick2[42]: - y[42] + z[42] <= 0
 mccormick2[43]: - y[43] + z[43] <= 0
 mccormick2[44]: - y[44] + z[44] <= 0
 mccormick2[45]: - y[45] + z[45] <= 0
 mccormick2[46]: - y[46] + z[46] <= 0
 mccormick2[47]: - y[47] + z[47] <= 0
 mccormick2[48]: - y[48] + z[48] <= 0
 mccormick2[49]: - y[49] + z[49] <= 0
 mccormick2[50]: - y[50] + z[50] <= 0
 mccormick2[51]: - y[51] + z[51] <= 0
 mccormick2[52]: - y[52] + z[52] <= 0
 mccormick2[53]: - y[53] + z[53] <= 0
 mccormick2[54]: - y[54] + z[54] <= 0
 mccormick2[55]: - y[55] + z[55] <= 0
 mccormick2[56]: - y[56] + z[56] <= 0
 mccormick2[57]: - y[57] + z[57] <= 0
 mccormick2[58]: - y[58] + z[58] <= 0
 mccormick2[59]: - y[59] + z[59] <= 0
 mccormick2[60]: - y[60] + z[60] <= 0
 mccormick2[61]: - y[61] + z[61] <= 0
 mccormick2[62]: - y[62] + z[62] <= 0
 mccormick2[63]: - y[63] + z[63] <= 0
 mccormick2[64]: - y[64] + z[64] <= 0
 mccormick2[65]: - y[65] + z[65] <= 0
 mccormick2[66]: - y[66] + z[66] <= 0
 mccormick2[67]: - y[67] + z[67] <= 0
 mccormick2[68]: - y[68] + z[68] <= 0
 mccormick2[69]: - y[69] + z[69] <= 0
 mccormick2[70]: - y[70] + z[70] <= 0
 mccormick2[71]: - y[71] + z[71] <= 0
 mccormick2[72]: - y[72] + z[72] <= 0
 mccormick2[73]: - y[73] + z[73] <= 0
 mccormick2[74]: - y[74] + z[74] <= 0
 mccormick2[75]: - y[75] + z[75] <= 0
 mccormick2[76]: - y[76] + z[76] <= 0
 mccormick2[77]: - y[77] + z[77] <= 0
 mccormick2[78]: - y[78] + z[78] <= 0
 mccormick2[79]: - y[79] + z[79] <= 0
 mccormick3[0]: y[0] + u[0] - z[0] <= 1
 mccormick3[1]: y[1] + u[1] - z[1] <= 1
 mccormick3[2]: y[2] + u[2] - z[2] <= 1
 mccormick3[3]: y[3] + u[3] - z[3] <= 1
 mccormick3[4]: y[4] + u[4] - z[4] <= 1
 mccormick3[5]: y[5] + u[5] - z[5] <= 1
 mccormick3[6]: y[6] + u[6] - z[6] <= 1
 mccormick3[7]: y[7] + u[7] - z[7] <= 1
 mccormick3[8]: y[8] + u[8] - z[8] <= 1
 mccormick3[9]: y[9] + u[9] - z[9] <= 1
 mccormick3[10]: y[10] + u[10] - z[10] <= 1
 mccormick3[11]: y[11] + u[11] - z[11] <= 1
 mccormick3[12]: y[12] + u[12] - z[12] <= 1
 mccormick3[13]: y[13] + u[13] - z[13] <= 1
 mccormick3[14]: y[14] + u[14] - z[14] <= 1
 mccormick3[15]: y[15] + u[15] - z[15] <= 1
 mccormick3[16]: y[16] + u[16] - z[16] <= 1
 mccormick3[17]: y[17] + u[17] - z[17] <= 1
 mccormick3[18]: y[18] + u[18] - z[18] <= 1
 mccormick3[19]: y[19] + u[19] - z[19] <= 1
 mccormick3[20]: y[20] + u[20] - z[20] <= 1
 mccormick3[21]: y[21] + u[21] - z[21] <= 1
 mccormick3[22]: y[22] + u[22] - z[22] <= 1
 mccormick3[23]: y[23] + u[23] - z[23] <= 1
 mccormick3[24]: y[24] + u[24] - z[24] <= 1
 mccormick3[25]: y[25] + u[25] - z[25] <= 1
 mccormick3[26]: y[26] + u[26] - z[26] <= 1
 mccormick3[27]: y[27] + u[27] - z[27] <= 1
 mccormick3[28]: y[28] + u[28] - z[28] <= 1
 mccormick3[29]: y[29] + u[29] - z[29] <= 1
 mccormick3[30]: y[30] + u[30] - z[30] <= 1
 mccormick3[31]: y[31] + u[31] - z[31] <= 1
 mccormick3[32]: y[32] + u[32] - z[32] <= 1
 mccormick3[33]: y[33] + u[33] - z[33] <= 1
 mccormick3[34]: y[34] + u[34] - z[34] <= 1
 mccormick3[35]: y[35] + u[35] - z[35] <= 1
 mccormick3[36]: y[36] + u[36] - z[36] <= 1
 mccormick3[37]: y[37] + u[37] - z[37] <= 1
 mccormick3[38]: y[38] + u[38] - z[38] <= 1
 mccormick3[39]: y[39] + u[39] - z[39] <= 1
 mccormick3[40]: y[40] + u[40] - z[40] <= 1
 mccormick3[41]: y[41] + u[41] - z[41] <= 1
 mccormick3[42]: y[42] + u[42] - z[42] <= 1
 mccormick3[43]: y[43] + u[43] - z[43] <= 1
 mccormick3[44]: y[44] + u[44] - z[44] <= 1
 mccormick3[45]: y[45] + u[45] - z[45] <= 1
 mccormick3[46]: y[46] + u[46] - z[46] <= 1
 mccormick3[47]: y[47] + u[47] - z[47] <= 1
 mccormick3[48]: y[48] + u[48] - z[48] <= 1
 mccormick3[49]: y[49] + u[49] - z[49] <= 1
 mccormick3[50]: y[50] + u[50] - z[50] <= 1
 mccormick3[51]: y[51] + u[51] - z[51] <= 1
 mccormick3[52]: y[52] + u[52] - z[52] <= 1
 mccormick3[53]: y[53] + u[53] - z[53] <= 1
 mccormick3[54]: y[54] + u[54] - z[54] <= 1
 mccormick3[55]: y[55] + u[55] - z[55] <= 1
 mccormick3[56]: y[56] + u[56] - z[56] <= 1
 mccormick3[57]: y[57] + u[57] - z[57] <= 1
 mccormick3[58]: y[58] + u[58] - z[58] <= 1
 mccormick3[59]: y[59] + u[59] - z[59] <= 1
 mccormick3[60]: y[60] + u[60] - z[60] <= 1
 mccormick3[61]: y[61] + u[61] - z[61] <= 1
 mccormick3[62]: y[62] + u[62] - z[62] <= 1
 mccormick3[63]: y[63] + u[63] - z[63] <= 1
 mccormick3[64]: y[64] + u[64] - z[64] <= 1
 mccormick3[65]: y[65] + u[65] - z[65] <= 1
 mccormick3[66]: y[66] + u[66] - z[66] <= 1
 mccormick3[67]: y[67] + u[67] - z[67] <= 1
 mccormick3[68]: y[68] + u[68] - z[68] <= 1
 mccormick3[69]: y[69] + u[69] - z[69] <= 1
 mccormick3[70]: y[70] + u[70] - z[70] <= 1
 mccormick3[71]: y[71] + u[71] - z[71] <= 1
 mccormick3[72]: y[72] + u[72] - z[72] <= 1
 mccormick3[73]: y[73] + u[73] - z[73] <= 1
 mccormick3[74]: y[74] + u[74] - z[74] <= 1
 mccormick3[75]: y[75] + u[75] - z[75] <= 1
 mccormick3[76]: y[76] + u[76] - z[76] <= 1
 mccormick3[77]: y[77] + u[77] - z[77] <= 1
 mccormick3[78]: y[78] + u[78] - z[78] <= 1
 mccormick3[79]: y[79] + u[79] - z[79] <= 1
Bounds
Binaries
 x[0] x[1] x[2] x[3] x[4] x[5] x[6] x[7] x[8] x[9] x[10] x[11] x[12] x[13]
 x[14] x[15] x[16] x[17] x[18] x[19] x[20] x[21] x[22] x[23] x[24] x[25]
 x[26] x[27] x[28] x[29] x[30] x[31] x[32] x[33] x[34] x[35] x[36] x[37]
 x[38] x[39] x[40] x[41] x[42] x[43] x[44] x[45] x[46] x[47] x[48] x[49]
 x[50] x[51] x[52] x[53] x[54] x[55] x[56] x[57] x[58] x[59] x[60] x[61]
 x[62] x[63] x[64] x[65] x[66] x[67] x[68] x[69] x[70] x[71] x[72] x[73]
 x[74] x[75] x[76] x[77] x[78] x[79] y[0] y[1] y[2] y[3] y[4] y[5] y[6]
 y[7] y[8] y[9] y[10] y[11] y[12] y[13] y[14] y[15] y[16] y[17] y[18] y[19]
 y[20] y[21] y[22] y[23] y[24] y[25] y[26] y[27] y[28] y[29] y[30] y[31]
 y[32] y[33] y[34] y[35] y[36] y[37] y[38] y[39] y[40] y[41] y[42] y[43]
 y[44] y[45] y[46] y[47] y[48] y[49] y[50] y[51] y[52] y[53] y[54] y[55]
 y[56] y[57] y[58] y[59] y[60] y[61] y[62] y[63] y[64] y[65] y[66] y[67]
 y[68] y[69] y[70] y[71] y[72] y[73] y[74] y[75] y[76] y[77] y[78] y[79]
 u[0] u[1] u[2] u[3] u[4] u[5] u[6] u[7] u[8] u[9] u[10] u[11] u[12] u[13]
 u[14] u[15] u[16] u[17] u[18] u[19] u[20] u[21] u[22] u[23] u[24] u[25]
 u[26] u[27] u[28] u[29] u[30] u[31] u[32] u[33] u[34] u[35] u[36] u[37]
 u[38] u[39] u[40] u[41] u[42] u[43] u[44] u[45] u[46] u[47] u[48] u[49]
 u[50] u[51] u[52] u[53] u[54] u[55] u[56] u[57] u[58] u[59] u[60] u[61]
 u[62] u[63] u[64] u[65] u[66] u[67] u[68] u[69] u[70] u[71] u[72] u[73]
 u[74] u[75] u[76] u[77] u[78] u[79] z[0] z[1] z[2] z[3] z[4] z[5] z[6]
 z[7] z[8] z[9] z[10] z[11] z[12] z[13] z[14] z[15] z[16] z[17] z[18] z[19]
 z[20] z[21] z[22] z[23] z[24] z[25] z[26] z[27] z[28] z[29] z[30] z[31]
 z[32] z[33] z[34] z[35] z[36] z[37] z[38] z[39] z[40] z[41] z[42] z[43]
 z[44] z[45] z[46] z[47] z[48] z[49] z[50] z[51] z[52] z[53] z[54] z[55]
 z[56] z[57] z[58] z[59] z[60] z[61] z[62] z[63] z[64] z[65] z[66] z[67]
 z[68] z[69] z[70] z[71] z[72] z[73] z[74] z[75] z[76] z[77] z[78] z[79]
End
